285 5
10 10 10 10 10 

0 0 0 0 0 0 3 2 14 26 
0 0 0 0 0 0 4 3 4 7 12 
5 0 0 4 0 0 4 11 10 9 5 
7 0 0 10 0 0 3 10 6 5 
5 0 0 10 0 0 2 8 264 
6 0 0 4 0 0 1 9 
3 0 0 5 0 0 1 8 
3 0 0 10 0 0 1 13 
10 0 0 5 0 0 1 13 
3 0 0 8 0 0 1 13 
10 0 0 10 0 0 1 13 
2 0 0 9 0 0 1 13 
0 0 0 0 0 0 1 38 
0 0 0 0 0 0 4 15 16 17 22 
2 0 0 0 0 6 5 21 20 19 18 215 
7 0 0 0 0 8 3 21 19 18 
1 0 0 0 0 6 3 20 19 18 
4 0 0 0 0 8 2 24 23 
1 0 0 0 0 10 1 24 
4 0 0 0 0 6 1 24 
7 0 0 0 0 10 1 23 
4 0 0 0 0 5 1 23 
10 0 0 0 0 6 1 25 
4 0 0 0 0 10 1 25 
0 0 0 0 0 0 1 38 
0 0 0 0 0 0 5 27 28 30 31 36 
7 0 0 0 2 0 3 35 33 32 
4 0 0 0 9 0 3 32 29 279 
8 0 0 0 9 0 1 33 
9 0 0 0 7 0 1 34 
2 0 0 0 6 0 1 32 
2 0 0 0 10 0 1 37 
1 0 0 0 8 0 1 37 
6 0 0 0 10 0 1 37 
4 0 0 0 5 0 1 37 
9 0 0 0 9 0 1 37 
0 0 0 0 0 0 1 38 
0 0 0 0 0 0 5 39 51 63 75 87 
0 0 0 0 0 0 4 40 41 42 44 
7 0 0 0 3 0 3 46 45 43 
10 0 0 0 9 0 3 48 46 45 
4 0 0 0 10 0 3 49 48 45 
9 0 0 0 8 0 2 48 47 
4 0 0 0 5 0 2 48 47 
3 0 0 0 6 0 1 47 
7 0 0 0 9 0 1 49 
8 0 0 0 7 0 1 50 
8 0 0 0 10 0 2 50 58 
1 0 0 0 8 0 1 50 
0 0 0 0 0 0 1 99 
0 0 0 0 0 0 5 52 53 55 56 57 
7 0 0 0 4 0 2 59 54 
10 0 0 0 5 0 2 59 54 
6 0 0 0 10 0 3 61 60 58 
4 0 0 0 10 0 2 59 58 
3 0 0 0 7 0 1 59 
4 0 0 0 7 0 1 58 
8 0 0 0 9 0 2 62 125 
2 0 0 0 10 0 1 62 
5 0 0 0 3 0 1 62 
8 0 0 0 10 0 1 62 
0 0 0 0 0 0 1 99 
0 0 0 0 0 0 6 64 65 66 69 72 73 
4 0 6 0 0 0 2 71 68 
10 0 5 0 0 0 2 71 70 
6 0 8 0 0 0 1 67 
1 0 6 0 0 0 1 70 
3 0 10 0 0 0 2 70 267 
5 0 10 0 0 0 1 70 
6 0 5 0 0 0 1 74 
5 0 9 0 0 0 1 74 
4 0 8 0 0 0 1 74 
8 0 8 0 0 0 1 74 
0 0 0 0 0 0 1 99 
0 0 0 0 0 0 4 76 77 78 79 
4 0 3 0 0 0 4 84 83 81 80 
9 0 5 0 0 0 3 84 82 81 
3 0 8 0 0 0 2 83 81 
5 0 9 0 0 0 3 82 81 129 
4 0 6 0 0 0 1 85 
9 0 8 0 0 0 1 86 
4 0 8 0 0 0 1 86 
6 0 9 0 0 0 1 86 
2 0 9 0 0 0 1 86 
9 0 10 0 0 0 1 86 
0 0 0 0 0 0 1 99 
0 0 0 0 0 0 6 88 89 90 91 93 97 
3 0 0 0 0 1 3 96 95 92 
5 0 0 0 0 6 2 95 92 
8 0 0 0 0 10 2 95 92 
5 0 0 0 0 10 2 95 92 
9 0 0 0 0 9 1 94 
6 0 0 0 0 8 1 96 
6 0 0 0 0 7 1 98 
9 0 0 0 0 8 2 98 172 
2 0 0 0 0 8 1 98 
9 0 0 0 0 8 1 98 
0 0 0 0 0 0 1 99 
0 0 0 0 0 0 5 100 122 134 156 178 
0 0 0 0 0 0 12 101 103 104 105 108 114 115 116 117 118 119 120 
6 0 0 0 3 3 2 111 102 
1 0 0 0 5 7 2 110 106 
3 0 0 0 6 7 2 113 110 
1 0 0 0 7 10 2 111 109 
5 0 0 0 8 9 2 110 109 
3 0 0 0 7 5 1 107 
7 0 0 0 6 10 1 109 
2 0 0 0 9 10 1 112 
2 0 0 0 10 7 1 121 
10 0 0 0 7 8 1 121 
9 0 0 0 10 8 1 121 
5 0 0 0 9 10 1 121 
8 0 0 0 7 10 1 121 
3 0 0 0 9 5 1 121 
9 0 0 0 8 8 1 121 
3 0 0 0 10 8 1 121 
9 0 0 0 9 9 2 121 146 
1 0 0 0 9 5 1 121 
10 0 0 0 6 3 1 121 
10 0 0 0 5 8 1 121 
0 0 0 0 0 0 1 248 
0 0 0 0 0 0 5 123 124 125 127 128 
5 0 0 0 1 0 3 131 130 126 
10 0 0 0 6 0 3 131 130 129 
9 0 0 0 7 0 3 131 130 129 
8 0 0 0 10 0 1 132 
9 0 0 0 10 0 1 132 
3 0 0 0 9 0 1 129 
7 0 0 0 8 0 1 133 
1 0 0 0 10 0 2 133 162 
2 0 0 0 8 0 1 133 
4 0 0 0 6 0 1 133 
0 0 0 0 0 0 4 200 212 224 236 
0 0 0 0 0 0 15 135 139 140 141 144 145 146 147 148 149 150 151 152 153 154 
3 5 0 0 0 2 1 136 
7 10 0 0 0 5 2 143 137 
8 5 0 0 0 5 1 138 
1 8 0 0 0 6 1 142 
5 8 0 0 0 7 1 143 
3 7 0 0 0 10 2 143 246 
9 7 0 0 0 10 1 142 
3 5 0 0 0 10 1 155 
4 10 0 0 0 8 1 155 
7 8 0 0 0 7 1 155 
8 6 0 0 0 10 1 155 
7 10 0 0 0 10 1 155 
1 4 0 0 0 5 1 155 
1 4 0 0 0 10 1 155 
10 8 0 0 0 10 1 155 
2 10 0 0 0 6 1 155 
10 6 0 0 0 5 1 155 
3 9 0 0 0 8 1 155 
5 10 0 0 0 8 1 155 
7 10 0 0 0 8 1 155 
0 0 0 0 0 0 1 248 
0 0 0 0 0 0 9 157 158 159 160 164 165 166 167 176 
2 0 3 10 0 0 5 175 174 173 172 163 
3 0 6 3 0 0 4 175 171 170 161 
1 0 10 4 0 0 2 171 162 
7 0 6 7 0 0 2 171 163 
6 0 10 8 0 0 3 173 172 168 
7 0 10 10 0 0 1 163 
2 0 5 8 0 0 2 170 168 
8 0 9 6 0 0 2 172 168 
1 0 10 8 0 0 2 174 171 
2 0 10 10 0 0 3 170 169 253 
2 0 8 10 0 0 1 168 
8 0 7 8 0 0 1 169 
3 0 2 8 0 0 1 177 
10 0 8 7 0 0 1 177 
2 0 9 5 0 0 1 177 
3 0 6 8 0 0 1 177 
7 0 4 5 0 0 1 177 
1 0 7 8 0 0 1 177 
8 0 10 7 0 0 1 177 
3 0 10 10 0 0 1 177 
0 0 0 0 0 0 1 248 
0 0 0 0 0 0 6 179 180 181 182 185 186 
4 3 0 2 0 0 3 198 191 184 
9 6 0 7 0 0 3 198 188 183 
5 9 0 9 0 0 2 189 183 
8 10 0 10 0 0 5 198 197 190 188 187 
10 10 0 8 0 0 4 197 193 191 187 
6 4 0 5 0 0 5 197 193 188 187 216 
1 2 0 5 0 0 4 197 193 191 187 
4 10 0 5 0 0 3 198 191 187 
3 5 0 10 0 0 3 196 195 194 
9 10 0 5 0 0 2 196 192 
2 6 0 7 0 0 2 198 193 
9 8 0 10 0 0 2 195 193 
5 7 0 10 0 0 1 192 
7 9 0 5 0 0 1 194 
6 5 0 10 0 0 1 194 
7 9 0 10 0 0 1 199 
7 8 0 10 0 0 1 199 
7 10 0 10 0 0 1 199 
9 9 0 9 0 0 1 199 
1 10 0 3 0 0 1 199 
0 0 0 0 0 0 1 248 
0 0 0 0 0 0 5 201 202 204 205 210 
7 0 0 0 3 0 3 209 203 266 
10 0 0 0 6 0 2 208 207 
9 0 0 0 6 0 1 206 
1 0 0 0 7 0 1 207 
2 0 0 0 7 0 1 206 
7 0 0 0 10 0 1 211 
5 0 0 0 10 0 1 211 
7 0 0 0 8 0 1 211 
4 0 0 0 8 0 1 211 
7 0 0 0 10 0 1 211 
0 0 0 0 0 0 1 248 
0 0 0 0 0 0 5 213 214 215 217 218 
6 0 0 2 0 0 3 222 221 216 
3 0 0 10 0 0 2 222 219 
1 0 0 9 0 0 2 220 219 
8 0 0 10 0 0 1 219 
8 0 0 6 0 0 1 221 
1 0 0 8 0 0 1 220 
3 0 0 10 0 0 1 223 
2 0 0 10 0 0 1 223 
3 0 0 7 0 0 1 223 
7 0 0 3 0 0 1 223 
0 0 0 0 0 0 1 248 
0 0 0 0 0 0 5 225 226 228 229 230 
1 0 0 0 4 0 2 233 227 
5 0 0 0 10 0 1 227 
5 0 0 0 3 0 2 232 231 
7 0 0 0 10 0 1 234 
8 0 0 0 5 0 1 233 
8 0 0 0 10 0 1 231 
2 0 0 0 9 0 1 235 
7 0 0 0 10 0 1 235 
6 0 0 0 6 0 1 235 
4 0 0 0 8 0 1 235 
0 0 0 0 0 0 1 248 
0 0 0 0 0 0 3 237 239 242 
3 0 5 0 0 0 5 246 245 241 240 238 
4 0 10 0 0 0 2 244 243 
7 0 5 0 0 0 1 240 
1 0 7 0 0 0 1 243 
4 0 9 0 0 0 1 243 
9 0 8 0 0 0 1 243 
2 0 3 0 0 0 1 247 
3 0 10 0 0 0 1 247 
7 0 10 0 0 0 1 247 
7 0 8 0 0 0 1 247 
0 0 0 0 0 0 1 248 
0 0 0 0 0 0 3 249 261 273 
0 0 0 0 0 0 5 250 251 253 258 259 
1 0 0 0 0 2 4 257 256 255 254 
3 0 0 0 0 9 3 257 256 252 
5 0 0 0 0 10 1 254 
2 0 0 0 0 10 1 255 
3 0 0 0 0 7 1 260 
7 0 0 0 0 10 1 260 
5 0 0 0 0 9 1 260 
9 0 0 0 0 7 1 260 
2 0 0 0 0 6 1 260 
2 0 0 0 0 5 1 260 
0 0 0 0 0 0 1 285 
0 0 0 0 0 0 4 262 263 265 267 
2 0 0 3 0 0 3 269 266 264 
10 0 0 8 0 0 2 269 266 
4 0 0 8 0 0 2 271 268 
7 0 0 7 0 0 2 269 268 
8 0 0 7 0 0 1 270 
8 0 0 10 0 0 1 268 
4 0 0 10 0 0 1 272 
10 0 0 9 0 0 1 272 
3 0 0 8 0 0 1 272 
7 0 0 5 0 0 1 272 
0 0 0 0 0 0 1 285 
0 0 0 0 0 0 7 274 275 276 278 279 282 283 
10 0 0 0 4 0 1 277 
1 0 0 0 9 0 1 277 
1 0 0 0 4 0 1 277 
5 0 0 0 4 0 1 280 
6 0 0 0 10 0 1 281 
9 0 0 0 5 0 1 280 
1 0 0 0 10 0 1 284 
3 0 0 0 9 0 1 284 
3 0 0 0 10 0 1 284 
2 0 0 0 10 0 1 284 
0 0 0 0 0 0 1 285 
0 0 0 0 0 0 0 
